<number of tasks>
70

<cycle time>
468

<task times>
1 17
2 66
3 54
4 52
5 6
6 88
7 21
8 128
9 68
10 70
11 85
12 21
13 134
14 135
15 94
16 90
17 50
18 143
19 19
20 54
21 50
22 40
23 73
24 12
25 152
26 42
27 45
28 74
29 26
30 11
31 31
32 50
33 102
34 46
35 35
36 40
37 2
38 1
39 3
40 13
41 16
42 25
43 21
44 43
45 30
46 83
47 89
48 56
49 59
50 43
51 11
52 26
53 44
54 121
55 38
56 68
57 22
58 7
59 16
60 32
61 25
62 27
63 156
64 28
65 15
66 26
67 18
68 72
69 23
70 27

<precedence relations>
1,2
1,41
1,69
1,70
2,3
3,4
3,68
4,6
4,7
5,6
5,24
5,30
6,8
7,8
8,12
9,10
10,11
11,12
12,13
12,14
13,23
14,23
15,16
16,17
16,18
17,19
18,19
19,20
19,22
19,57
20,21
21,23
22,23
23,25
23,31
23,33
24,25
25,26
25,27
25,28
25,29
26,35
27,35
28,35
29,35
30,31
31,32
32,35
33,34
34,35
35,36
35,44
35,48
35,51
35,53
35,56
35,60
35,61
35,62
36,37
37,38
38,39
39,40
40,42
41,42
42,43
43,50
44,45
45,46
46,47
47,50
48,49
49,50
51,52
52,54
53,54
54,55
57,58
58,59
59,60
61,65
62,63
63,64
64,65
64,66
64,67

<setup times forward>
1,10:4
1,11:4
1,16:4
1,17:4
1,18:2
1,19:2
1,20:1
1,21:1
1,22:1
1,24:4
1,30:4
1,41:2
1,57:1
1,58:1
1,59:1
1,69:5
1,70:5
2,10:4
2,11:4
2,16:4
2,17:4
2,18:2
2,19:2
2,20:1
2,21:1
2,22:1
2,24:4
2,30:4
2,41:2
2,57:1
2,58:1
2,59:1
2,69:5
2,70:5
3,10:4
3,11:4
3,16:4
3,17:4
3,18:2
3,19:2
3,20:1
3,21:1
3,22:1
3,24:4
3,30:4
3,41:2
3,57:1
3,58:1
3,59:1
3,68:1
3,69:5
3,70:5
4,10:4
4,11:4
4,16:4
4,17:4
4,18:2
4,19:2
4,20:1
4,21:1
4,22:1
4,24:4
4,30:4
4,41:2
4,57:1
4,58:1
4,59:1
4,68:1
4,69:5
4,70:5
5,10:4
5,11:4
5,16:4
5,17:4
5,18:2
5,19:2
5,20:1
5,21:1
5,22:1
5,24:4
5,30:4
5,41:2
5,57:1
5,58:1
5,59:1
5,68:1
5,69:5
5,70:5
6,8:4
6,10:4
6,11:4
6,16:4
6,17:4
6,18:2
6,19:2
6,20:1
6,21:1
6,22:1
6,24:4
6,30:4
6,41:2
6,57:1
6,58:1
6,59:1
6,68:1
6,69:5
6,70:5
7,8:4
7,10:4
7,11:4
7,16:4
7,17:4
7,18:2
7,19:2
7,20:1
7,21:1
7,22:1
7,24:4
7,30:4
7,41:2
7,57:1
7,58:1
7,59:1
7,68:1
7,69:5
7,70:5
8,9:4
8,15:4
8,18:6
8,19:6
8,20:3
8,21:3
8,22:3
8,41:6
8,57:5
8,58:5
8,59:5
8,68:5
8,69:9
8,70:9
9,8:4
9,10:4
9,16:4
9,17:4
9,18:2
9,19:2
9,20:1
9,21:1
9,22:1
9,24:4
9,30:4
9,41:2
9,57:1
9,58:1
9,59:1
9,68:1
9,69:5
9,70:5
10,1:4
10,2:4
10,3:4
10,4:4
10,5:4
10,6:4
10,7:4
10,15:4
10,18:6
10,19:6
10,20:3
10,21:3
10,22:3
10,41:6
10,57:5
10,58:5
10,59:5
10,68:5
10,69:9
10,70:9
11,1:4
11,2:4
11,3:4
11,4:4
11,5:4
11,6:4
11,7:4
11,15:4
11,18:6
11,19:6
11,20:3
11,21:3
11,22:3
11,41:6
11,57:5
11,58:5
11,59:5
11,68:5
11,69:9
11,70:9
12,13:6
12,14:6
12,15:4
12,18:6
12,19:6
12,20:3
12,21:3
12,22:3
12,41:6
12,57:5
12,58:5
12,59:5
12,68:5
12,69:9
12,70:9
13,15:2
13,16:6
13,17:6
13,20:3
13,21:3
13,22:3
13,23:3
13,24:6
13,30:6
13,57:1
13,58:1
13,59:1
13,68:1
13,69:3
13,70:3
14,15:2
14,16:6
14,17:6
14,20:3
14,21:3
14,22:3
14,23:3
14,24:6
14,30:6
14,57:1
14,58:1
14,59:1
14,68:1
14,69:3
14,70:3
15,8:4
15,10:4
15,11:4
15,12:4
15,13:2
15,14:2
15,16:4
15,24:4
15,30:4
15,41:2
15,68:1
15,69:5
15,70:5
16,1:4
16,2:4
16,3:4
16,4:4
16,5:4
16,6:4
16,7:4
16,9:4
16,13:6
16,14:6
16,18:6
16,41:6
16,68:5
16,69:9
16,70:9
17,1:4
17,2:4
17,3:4
17,4:4
17,5:4
17,6:4
17,7:4
17,9:4
17,13:6
17,14:6
17,18:6
17,19:6
17,41:6
17,68:5
17,69:9
17,70:9
18,1:2
18,2:2
18,3:2
18,4:2
18,5:2
18,6:2
18,7:2
18,8:6
18,9:2
18,10:6
18,11:6
18,12:6
18,17:6
18,24:6
18,30:6
18,68:1
18,69:3
18,70:3
19,1:2
19,2:2
19,3:2
19,4:2
19,5:2
19,6:2
19,7:2
19,8:6
19,9:2
19,10:6
19,11:6
19,12:6
19,20:3
19,22:3
19,24:6
19,30:6
19,57:1
19,68:1
19,69:3
19,70:3
20,1:1
20,2:1
20,3:1
20,4:1
20,5:1
20,6:1
20,7:1
20,8:3
20,9:1
20,10:3
20,11:3
20,12:3
20,13:3
20,14:3
20,24:3
20,30:3
20,41:3
20,57:2
20,58:2
20,59:2
20,68:2
20,69:6
20,70:6
21,1:1
21,2:1
21,3:1
21,4:1
21,5:1
21,6:1
21,7:1
21,8:3
21,9:1
21,10:3
21,11:3
21,12:3
21,13:3
21,14:3
21,24:3
21,30:3
21,41:3
21,57:2
21,58:2
21,59:2
21,68:2
21,69:6
21,70:6
22,1:1
22,2:1
22,3:1
22,4:1
22,5:1
22,6:1
22,7:1
22,8:3
22,9:1
22,10:3
22,11:3
22,12:3
22,13:3
22,14:3
22,24:3
22,30:3
22,41:3
22,57:2
22,58:2
22,59:2
22,68:2
22,69:6
22,70:6
23,24:3
23,30:3
23,41:3
23,57:2
23,58:2
23,59:2
23,68:2
23,69:6
23,70:6
24,1:4
24,2:4
24,3:4
24,4:4
24,6:4
24,7:4
24,9:4
24,13:6
24,14:6
24,15:4
24,18:6
24,19:6
24,20:3
24,21:3
24,22:3
24,23:3
24,25:3
24,31:3
24,32:3
24,33:3
24,34:3
24,41:6
24,57:5
24,58:5
24,59:5
24,68:5
24,69:9
24,70:9
25,30:3
25,41:3
25,57:2
25,58:2
25,59:2
25,68:2
25,69:6
25,70:6
26,30:3
26,41:3
26,57:2
26,58:2
26,59:2
26,68:2
26,69:6
26,70:6
27,30:3
27,41:3
27,57:2
27,58:2
27,59:2
27,68:2
27,69:6
27,70:6
28,30:3
28,41:3
28,57:2
28,58:2
28,59:2
28,68:2
28,69:6
28,70:6
29,30:3
29,41:3
29,57:2
29,58:2
29,59:2
29,68:2
29,69:6
29,70:6
30,1:4
30,2:4
30,3:4
30,4:4
30,6:4
30,7:4
30,9:4
30,13:6
30,14:6
30,15:4
30,18:6
30,19:6
30,20:3
30,21:3
30,22:3
30,23:3
30,25:3
30,26:3
30,27:3
30,28:3
30,29:3
30,31:3
30,33:3
30,34:3
30,41:6
30,57:5
30,58:5
30,59:5
30,68:5
30,69:9
30,70:9
31,24:3
31,41:3
31,57:2
31,58:2
31,59:2
31,68:2
31,69:6
31,70:6
32,24:3
32,41:3
32,57:2
32,58:2
32,59:2
32,68:2
32,69:6
32,70:6
33,24:3
33,30:3
33,41:3
33,57:2
33,58:2
33,59:2
33,68:2
33,69:6
33,70:6
34,24:3
34,30:3
34,41:3
34,57:2
34,58:2
34,59:2
34,68:2
34,69:6
34,70:6
35,36:2
35,41:3
35,48:2
35,53:4
35,56:6
35,57:2
35,58:2
35,59:2
35,60:6
35,61:6
35,68:2
35,69:6
35,70:6
36,41:1
36,44:2
36,45:2
36,46:2
36,51:2
36,52:2
36,53:2
36,54:2
36,55:4
36,56:4
36,60:4
36,61:4
36,62:2
36,63:2
36,65:4
36,66:4
36,67:4
36,69:4
36,70:4
37,41:1
37,44:2
37,45:2
37,46:2
37,51:2
37,52:2
37,53:2
37,54:2
37,55:4
37,56:4
37,60:4
37,61:4
37,62:2
37,63:2
37,65:4
37,66:4
37,67:4
37,69:4
37,70:4
38,41:1
38,44:2
38,45:2
38,46:2
38,51:2
38,52:2
38,53:2
38,54:2
38,55:4
38,56:4
38,60:4
38,61:4
38,62:2
38,63:2
38,65:4
38,66:4
38,67:4
38,69:4
38,70:4
39,41:1
39,44:2
39,45:2
39,46:2
39,51:2
39,52:2
39,53:2
39,54:2
39,55:4
39,56:4
39,60:4
39,61:4
39,62:2
39,63:2
39,65:4
39,66:4
39,67:4
39,69:4
39,70:4
40,41:1
40,44:2
40,45:2
40,46:2
40,51:2
40,52:2
40,53:2
40,54:2
40,55:4
40,56:4
40,60:4
40,61:4
40,62:2
40,63:2
40,65:4
40,66:4
40,67:4
40,69:4
40,70:4
41,2:2
41,3:2
41,4:2
41,5:2
41,6:2
41,7:2
41,8:6
41,9:2
41,10:6
41,11:6
41,12:6
41,15:2
41,16:6
41,17:6
41,20:3
41,21:3
41,22:3
41,23:3
41,24:6
41,25:3
41,26:3
41,27:3
41,28:3
41,29:3
41,30:6
41,31:3
41,32:3
41,33:3
41,34:3
41,35:3
41,36:1
41,37:1
41,38:1
41,39:1
41,40:1
41,42:1
41,44:3
41,45:1
41,46:1
41,47:1
41,48:1
41,49:1
41,51:3
41,52:1
41,53:1
41,54:1
41,55:3
41,56:3
41,57:1
41,58:1
41,59:1
41,60:3
41,61:3
41,62:3
41,63:1
41,64:1
41,65:3
41,66:3
41,67:3
41,68:1
41,69:3
41,70:3
42,44:2
42,45:2
42,46:2
42,51:2
42,52:2
42,53:2
42,54:2
42,55:4
42,56:4
42,60:4
42,61:4
42,62:2
42,63:2
42,65:4
42,66:4
42,67:4
42,69:4
42,70:4
43,44:2
43,45:2
43,46:2
43,50:4
43,51:2
43,52:2
43,53:2
43,54:2
43,55:4
43,56:4
43,60:4
43,61:4
43,62:2
43,63:2
43,65:4
43,66:4
43,67:4
43,69:4
43,70:4
44,36:2
44,37:2
44,38:2
44,39:2
44,40:2
44,41:3
44,42:2
44,43:2
44,45:4
44,48:2
44,49:2
44,52:4
44,53:4
44,54:4
44,55:6
44,56:6
44,57:2
44,58:2
44,59:2
44,60:6
44,61:6
44,63:4
44,64:2
44,65:6
44,66:6
44,67:6
44,68:2
44,69:6
44,70:6
45,36:2
45,37:2
45,38:2
45,39:2
45,40:2
45,41:1
45,42:2
45,43:2
45,48:2
45,49:2
45,51:4
45,55:2
45,56:2
45,57:2
45,58:2
45,59:2
45,60:2
45,61:2
45,62:4
45,64:2
45,65:2
45,66:2
45,67:2
45,68:2
45,69:2
45,70:2
46,36:2
46,37:2
46,38:2
46,39:2
46,40:2
46,41:1
46,42:2
46,43:2
46,47:2
46,48:2
46,49:2
46,51:4
46,55:2
46,56:2
46,57:2
46,58:2
46,59:2
46,60:2
46,61:2
46,62:4
46,64:2
46,65:2
46,66:2
46,67:2
46,68:2
46,69:2
46,70:2
47,41:1
47,50:4
47,51:2
47,52:2
47,53:2
47,54:2
47,55:4
47,56:4
47,60:4
47,61:4
47,62:2
47,63:2
47,65:4
47,66:4
47,67:4
47,69:4
47,70:4
48,41:1
48,44:2
48,45:2
48,46:2
48,51:2
48,52:2
48,53:2
48,54:2
48,55:4
48,56:4
48,60:4
48,61:4
48,62:2
48,63:2
48,65:4
48,66:4
48,67:4
48,69:4
48,70:4
49,41:1
49,44:2
49,45:2
49,46:2
49,50:4
49,51:2
49,52:2
49,53:2
49,54:2
49,55:4
49,56:4
49,60:4
49,61:4
49,62:2
49,63:2
49,65:4
49,66:4
49,67:4
49,69:4
49,70:4
50,51:6
50,52:2
50,53:2
50,54:2
50,57:4
50,58:4
50,59:4
50,62:6
50,63:2
50,64:4
50,68:4
51,36:2
51,37:2
51,38:2
51,39:2
51,40:2
51,41:3
51,42:2
51,43:2
51,45:4
51,46:4
51,47:2
51,48:2
51,49:2
51,50:6
51,52:4
51,53:4
51,56:6
51,57:2
51,58:2
51,59:2
51,60:6
51,61:6
51,63:4
51,64:2
51,65:6
51,66:6
51,67:6
51,68:2
51,69:6
51,70:6
52,36:2
52,37:2
52,38:2
52,39:2
52,40:2
52,41:1
52,42:2
52,43:2
52,44:4
52,47:2
52,48:2
52,49:2
52,50:2
52,56:2
52,57:2
52,58:2
52,59:2
52,60:2
52,61:2
52,62:4
52,64:2
52,65:2
52,66:2
52,67:2
52,68:2
52,69:2
52,70:2
53,36:2
53,37:2
53,38:2
53,39:2
53,40:2
53,41:1
53,42:2
53,43:2
53,44:4
53,47:2
53,48:2
53,49:2
53,50:2
53,51:4
53,56:2
53,57:2
53,58:2
53,59:2
53,60:2
53,61:2
53,62:4
53,64:2
53,65:2
53,66:2
53,67:2
53,68:2
53,69:2
53,70:2
54,36:2
54,37:2
54,38:2
54,39:2
54,40:2
54,41:1
54,42:2
54,43:2
54,44:4
54,47:2
54,48:2
54,49:2
54,50:2
54,55:2
54,56:2
54,57:2
54,58:2
54,59:2
54,60:2
54,61:2
54,62:4
54,64:2
54,65:2
54,66:2
54,67:2
54,68:2
54,69:2
54,70:2
55,36:4
55,37:4
55,38:4
55,39:4
55,40:4
55,41:3
55,42:4
55,43:4
55,44:6
55,45:2
55,46:2
55,47:4
55,48:4
55,49:4
55,57:4
55,58:4
55,59:4
55,62:6
55,63:2
55,64:4
55,68:4
56,36:4
56,37:4
56,38:4
56,39:4
56,40:4
56,41:3
56,42:4
56,43:4
56,44:6
56,45:2
56,46:2
56,47:4
56,48:4
56,49:4
56,51:6
56,52:2
56,53:2
56,54:2
56,57:4
56,58:4
56,59:4
56,62:6
56,63:2
56,64:4
56,68:4
57,1:1
57,2:1
57,3:1
57,4:1
57,5:1
57,6:1
57,7:1
57,8:5
57,9:1
57,10:5
57,11:5
57,12:5
57,13:1
57,14:1
57,20:2
57,21:2
57,22:2
57,23:2
57,24:5
57,25:2
57,26:2
57,27:2
57,28:2
57,29:2
57,30:5
57,31:2
57,32:2
57,33:2
57,34:2
57,35:2
57,41:1
57,44:2
57,45:2
57,46:2
57,50:4
57,51:2
57,52:2
57,53:2
57,54:2
57,55:4
57,56:4
57,61:4
57,62:2
57,63:2
57,65:4
57,66:4
57,67:4
57,69:4
57,70:4
58,1:1
58,2:1
58,3:1
58,4:1
58,5:1
58,6:1
58,7:1
58,8:5
58,9:1
58,10:5
58,11:5
58,12:5
58,13:1
58,14:1
58,20:2
58,21:2
58,22:2
58,23:2
58,24:5
58,25:2
58,26:2
58,27:2
58,28:2
58,29:2
58,30:5
58,31:2
58,32:2
58,33:2
58,34:2
58,35:2
58,41:1
58,44:2
58,45:2
58,46:2
58,50:4
58,51:2
58,52:2
58,53:2
58,54:2
58,55:4
58,56:4
58,61:4
58,62:2
58,63:2
58,65:4
58,66:4
58,67:4
58,69:4
58,70:4
59,1:1
59,2:1
59,3:1
59,4:1
59,5:1
59,6:1
59,7:1
59,8:5
59,9:1
59,10:5
59,11:5
59,12:5
59,13:1
59,14:1
59,20:2
59,21:2
59,22:2
59,23:2
59,24:5
59,25:2
59,26:2
59,27:2
59,28:2
59,29:2
59,30:5
59,31:2
59,32:2
59,33:2
59,34:2
59,35:2
59,41:1
59,44:2
59,45:2
59,46:2
59,50:4
59,51:2
59,52:2
59,53:2
59,54:2
59,55:4
59,56:4
59,60:4
59,61:4
59,62:2
59,63:2
59,65:4
59,66:4
59,67:4
59,69:4
59,70:4
60,36:4
60,37:4
60,38:4
60,39:4
60,40:4
60,41:3
60,42:4
60,43:4
60,44:6
60,45:2
60,46:2
60,47:4
60,48:4
60,49:4
60,51:6
60,52:2
60,53:2
60,54:2
60,62:6
60,63:2
60,64:4
60,68:4
61,36:4
61,37:4
61,38:4
61,39:4
61,40:4
61,41:3
61,42:4
61,43:4
61,44:6
61,45:2
61,46:2
61,47:4
61,48:4
61,49:4
61,51:6
61,52:2
61,53:2
61,54:2
61,57:4
61,58:4
61,59:4
61,62:6
61,63:2
61,64:4
61,68:4
62,36:2
62,37:2
62,38:2
62,39:2
62,40:2
62,41:3
62,42:2
62,43:2
62,45:4
62,46:4
62,47:2
62,48:2
62,49:2
62,50:6
62,52:4
62,53:4
62,54:4
62,55:6
62,56:6
62,57:2
62,58:2
62,59:2
62,60:6
62,61:6
62,63:4
62,68:2
62,69:6
62,70:6
63,36:2
63,37:2
63,38:2
63,39:2
63,40:2
63,41:1
63,42:2
63,43:2
63,44:4
63,47:2
63,48:2
63,49:2
63,50:2
63,51:4
63,55:2
63,56:2
63,57:2
63,58:2
63,59:2
63,60:2
63,61:2
63,64:2
63,68:2
63,69:2
63,70:2
64,41:1
64,44:2
64,45:2
64,46:2
64,50:4
64,51:2
64,52:2
64,53:2
64,54:2
64,55:4
64,56:4
64,60:4
64,61:4
64,65:4
64,66:4
64,67:4
64,69:4
64,70:4
65,36:4
65,37:4
65,38:4
65,39:4
65,40:4
65,41:3
65,42:4
65,43:4
65,44:6
65,45:2
65,46:2
65,47:4
65,48:4
65,49:4
65,51:6
65,52:2
65,53:2
65,54:2
65,57:4
65,58:4
65,59:4
65,68:4
66,36:4
66,37:4
66,38:4
66,39:4
66,40:4
66,41:3
66,42:4
66,43:4
66,44:6
66,45:2
66,46:2
66,47:4
66,48:4
66,49:4
66,51:6
66,52:2
66,53:2
66,54:2
66,57:4
66,58:4
66,59:4
66,68:4
67,36:4
67,37:4
67,38:4
67,39:4
67,40:4
67,41:3
67,42:4
67,43:4
67,44:6
67,45:2
67,46:2
67,47:4
67,48:4
67,49:4
67,51:6
67,52:2
67,53:2
67,54:2
67,57:4
67,58:4
67,59:4
67,68:4
68,4:1
68,5:1
68,6:1
68,7:1
68,8:5
68,9:1
68,10:5
68,11:5
68,12:5
68,13:1
68,14:1
68,15:1
68,16:5
68,17:5
68,18:1
68,19:1
68,20:2
68,21:2
68,22:2
68,23:2
68,24:5
68,25:2
68,26:2
68,27:2
68,28:2
68,29:2
68,30:5
68,31:2
68,32:2
68,33:2
68,34:2
68,35:2
68,41:1
68,44:2
68,45:2
68,46:2
68,50:4
68,51:2
68,52:2
68,53:2
68,54:2
68,55:4
68,56:4
68,60:4
68,61:4
68,62:2
68,63:2
68,65:4
68,66:4
68,67:4
68,69:4
68,70:4
69,2:5
69,3:5
69,4:5
69,5:5
69,6:5
69,7:5
69,8:9
69,9:5
69,10:9
69,11:9
69,12:9
69,13:3
69,14:3
69,15:5
69,16:9
69,17:9
69,18:3
69,19:3
69,20:6
69,21:6
69,22:6
69,23:6
69,24:9
69,25:6
69,26:6
69,27:6
69,28:6
69,29:6
69,30:9
69,31:6
69,32:6
69,33:6
69,34:6
69,35:6
69,36:4
69,37:4
69,38:4
69,39:4
69,40:4
69,41:3
69,42:4
69,43:4
69,44:6
69,45:2
69,46:2
69,47:4
69,48:4
69,49:4
69,51:6
69,52:2
69,53:2
69,54:2
69,57:4
69,58:4
69,59:4
69,62:6
69,63:2
69,64:4
69,68:4
70,2:5
70,3:5
70,4:5
70,5:5
70,6:5
70,7:5
70,8:9
70,9:5
70,10:9
70,11:9
70,12:9
70,13:3
70,14:3
70,15:5
70,16:9
70,17:9
70,18:3
70,19:3
70,20:6
70,21:6
70,22:6
70,23:6
70,24:9
70,25:6
70,26:6
70,27:6
70,28:6
70,29:6
70,30:9
70,31:6
70,32:6
70,33:6
70,34:6
70,35:6
70,36:4
70,37:4
70,38:4
70,39:4
70,40:4
70,41:3
70,42:4
70,43:4
70,44:6
70,45:2
70,46:2
70,47:4
70,48:4
70,49:4
70,51:6
70,52:2
70,53:2
70,54:2
70,57:4
70,58:4
70,59:4
70,62:6
70,63:2
70,64:4
70,68:4

<setup times backward>
1,1:1
1,5:1
1,9:1
1,15:1
1,18:3
1,19:3
1,57:2
1,58:2
1,59:2
2,1:1
2,2:1
2,5:1
2,9:1
2,15:1
2,18:3
2,19:3
2,41:3
2,57:2
2,58:2
2,59:2
2,69:6
2,70:6
3,1:1
3,2:1
3,3:1
3,5:1
3,9:1
3,15:1
3,18:3
3,19:3
3,41:3
3,57:2
3,58:2
3,59:2
3,69:6
3,70:6
4,1:1
4,2:1
4,3:1
4,4:1
4,5:1
4,9:1
4,15:1
4,18:3
4,19:3
4,41:3
4,57:2
4,58:2
4,59:2
4,68:2
4,69:6
4,70:6
5,1:1
5,2:1
5,3:1
5,4:1
5,5:1
5,7:1
5,9:1
5,15:1
5,18:3
5,19:3
5,41:3
5,57:2
5,58:2
5,59:2
5,68:2
5,69:6
5,70:6
6,1:1
6,2:1
6,3:1
6,4:1
6,5:1
6,6:1
6,7:1
6,9:1
6,15:1
6,18:3
6,19:3
6,41:3
6,57:2
6,58:2
6,59:2
6,68:2
6,69:6
6,70:6
7,1:1
7,2:1
7,3:1
7,4:1
7,5:1
7,6:1
7,7:1
7,9:1
7,15:1
7,18:3
7,19:3
7,41:3
7,57:2
7,58:2
7,59:2
7,68:2
7,69:6
7,70:6
8,1:5
8,2:5
8,3:5
8,4:5
8,5:5
8,6:5
8,7:5
8,8:1
8,9:5
8,10:1
8,11:1
8,15:5
8,16:1
8,17:1
8,18:7
8,19:7
8,20:4
8,21:4
8,22:4
8,24:1
8,30:1
8,41:7
8,57:6
8,58:6
8,59:6
8,68:6
8,69:10
8,70:10
9,1:1
9,2:1
9,3:1
9,4:1
9,5:1
9,6:1
9,7:1
9,9:1
9,15:1
9,18:3
9,19:3
9,41:3
9,57:2
9,58:2
9,59:2
9,68:2
9,69:6
9,70:6
10,1:5
10,2:5
10,3:5
10,4:5
10,5:5
10,6:5
10,7:5
10,8:1
10,9:5
10,10:1
10,15:5
10,16:1
10,17:1
10,18:7
10,19:7
10,20:4
10,21:4
10,22:4
10,24:1
10,30:1
10,41:7
10,57:6
10,58:6
10,59:6
10,68:6
10,69:10
10,70:10
11,1:5
11,2:5
11,3:5
11,4:5
11,5:5
11,6:5
11,7:5
11,8:1
11,9:5
11,10:1
11,11:1
11,15:5
11,16:1
11,17:1
11,18:7
11,19:7
11,20:4
11,21:4
11,22:4
11,24:1
11,30:1
11,41:7
11,57:6
11,58:6
11,59:6
11,68:6
11,69:10
11,70:10
12,1:5
12,2:5
12,3:5
12,4:5
12,5:5
12,6:5
12,7:5
12,8:1
12,9:5
12,10:1
12,11:1
12,12:1
12,15:5
12,16:1
12,17:1
12,18:7
12,19:7
12,20:4
12,21:4
12,22:4
12,24:1
12,30:1
12,41:7
12,57:6
12,58:6
12,59:6
12,68:6
12,69:10
12,70:10
13,13:1
13,14:1
13,18:1
13,19:1
13,41:1
13,69:4
13,70:4
14,13:1
14,14:1
14,18:1
14,19:1
14,41:1
14,69:4
14,70:4
15,1:1
15,2:1
15,3:1
15,4:1
15,5:1
15,6:1
15,7:1
15,9:1
15,13:3
15,14:3
15,15:1
15,41:3
15,68:2
15,69:6
15,70:6
16,1:5
16,2:5
16,3:5
16,4:5
16,5:5
16,6:5
16,7:5
16,8:1
16,9:5
16,10:1
16,11:1
16,12:1
16,13:7
16,14:7
16,15:5
16,16:1
16,24:1
16,30:1
16,41:7
16,68:6
16,69:10
16,70:10
17,1:5
17,2:5
17,3:5
17,4:5
17,5:5
17,6:5
17,7:5
17,8:1
17,9:5
17,10:1
17,11:1
17,12:1
17,13:7
17,14:7
17,15:5
17,16:1
17,17:1
17,18:7
17,24:1
17,30:1
17,41:7
17,68:6
17,69:10
17,70:10
18,13:1
18,14:1
18,18:1
18,41:1
18,69:4
18,70:4
19,13:1
19,14:1
19,18:1
19,19:1
19,41:1
19,69:4
19,70:4
20,1:2
20,2:2
20,3:2
20,4:2
20,5:2
20,6:2
20,7:2
20,9:2
20,13:4
20,14:4
20,15:2
20,18:4
20,19:4
20,20:1
20,22:1
20,41:4
20,57:3
20,58:3
20,59:3
20,68:3
20,69:7
20,70:7
21,1:2
21,2:2
21,3:2
21,4:2
21,5:2
21,6:2
21,7:2
21,9:2
21,13:4
21,14:4
21,15:2
21,18:4
21,19:4
21,20:1
21,21:1
21,22:1
21,41:4
21,57:3
21,58:3
21,59:3
21,68:3
21,69:7
21,70:7
22,1:2
22,2:2
22,3:2
22,4:2
22,5:2
22,6:2
22,7:2
22,9:2
22,13:4
22,14:4
22,15:2
22,18:4
22,19:4
22,20:1
22,21:1
22,22:1
22,41:4
22,57:3
22,58:3
22,59:3
22,68:3
22,69:7
22,70:7
23,1:2
23,2:2
23,3:2
23,4:2
23,5:2
23,6:2
23,7:2
23,9:2
23,13:4
23,14:4
23,15:2
23,18:4
23,19:4
23,20:1
23,21:1
23,22:1
23,23:1
23,41:4
23,57:3
23,58:3
23,59:3
23,68:3
23,69:7
23,70:7
24,1:5
24,2:5
24,3:5
24,4:5
24,5:5
24,6:5
24,7:5
24,8:1
24,9:5
24,10:1
24,11:1
24,12:1
24,13:7
24,14:7
24,15:5
24,16:1
24,17:1
24,18:7
24,19:7
24,20:4
24,21:4
24,22:4
24,23:4
24,24:1
24,30:1
24,31:4
24,32:4
24,33:4
24,34:4
24,41:7
24,57:6
24,58:6
24,59:6
24,68:6
24,69:10
24,70:10
25,1:2
25,2:2
25,3:2
25,4:2
25,5:2
25,6:2
25,7:2
25,9:2
25,13:4
25,14:4
25,15:2
25,18:4
25,19:4
25,20:1
25,21:1
25,22:1
25,23:1
25,25:1
25,31:1
25,32:1
25,33:1
25,34:1
25,41:4
25,57:3
25,58:3
25,59:3
25,68:3
25,69:7
25,70:7
26,1:2
26,2:2
26,3:2
26,4:2
26,5:2
26,6:2
26,7:2
26,9:2
26,13:4
26,14:4
26,15:2
26,18:4
26,19:4
26,20:1
26,21:1
26,22:1
26,23:1
26,25:1
26,26:1
26,27:1
26,28:1
26,29:1
26,31:1
26,32:1
26,33:1
26,34:1
26,41:4
26,57:3
26,58:3
26,59:3
26,68:3
26,69:7
26,70:7
27,1:2
27,2:2
27,3:2
27,4:2
27,5:2
27,6:2
27,7:2
27,9:2
27,13:4
27,14:4
27,15:2
27,18:4
27,19:4
27,20:1
27,21:1
27,22:1
27,23:1
27,25:1
27,26:1
27,27:1
27,28:1
27,29:1
27,31:1
27,32:1
27,33:1
27,34:1
27,41:4
27,57:3
27,58:3
27,59:3
27,68:3
27,69:7
27,70:7
28,1:2
28,2:2
28,3:2
28,4:2
28,5:2
28,6:2
28,7:2
28,9:2
28,13:4
28,14:4
28,15:2
28,18:4
28,19:4
28,20:1
28,21:1
28,22:1
28,23:1
28,25:1
28,26:1
28,27:1
28,28:1
28,29:1
28,31:1
28,32:1
28,33:1
28,34:1
28,41:4
28,57:3
28,58:3
28,59:3
28,68:3
28,69:7
28,70:7
29,1:2
29,2:2
29,3:2
29,4:2
29,5:2
29,6:2
29,7:2
29,9:2
29,13:4
29,14:4
29,15:2
29,18:4
29,19:4
29,20:1
29,21:1
29,22:1
29,23:1
29,25:1
29,26:1
29,27:1
29,28:1
29,29:1
29,31:1
29,32:1
29,33:1
29,34:1
29,41:4
29,57:3
29,58:3
29,59:3
29,68:3
29,69:7
29,70:7
30,1:5
30,2:5
30,3:5
30,4:5
30,5:5
30,6:5
30,7:5
30,8:1
30,9:5
30,10:1
30,11:1
30,12:1
30,13:7
30,14:7
30,15:5
30,16:1
30,17:1
30,18:7
30,19:7
30,20:4
30,21:4
30,22:4
30,23:4
30,24:1
30,25:4
30,26:4
30,27:4
30,28:4
30,29:4
30,30:1
30,33:4
30,34:4
30,41:7
30,57:6
30,58:6
30,59:6
30,68:6
30,69:10
30,70:10
31,1:2
31,2:2
31,3:2
31,4:2
31,5:2
31,6:2
31,7:2
31,9:2
31,13:4
31,14:4
31,15:2
31,18:4
31,19:4
31,20:1
31,21:1
31,22:1
31,23:1
31,25:1
31,26:1
31,27:1
31,28:1
31,29:1
31,31:1
31,33:1
31,34:1
31,41:4
31,57:3
31,58:3
31,59:3
31,68:3
31,69:7
31,70:7
32,1:2
32,2:2
32,3:2
32,4:2
32,5:2
32,6:2
32,7:2
32,9:2
32,13:4
32,14:4
32,15:2
32,18:4
32,19:4
32,20:1
32,21:1
32,22:1
32,23:1
32,25:1
32,26:1
32,27:1
32,28:1
32,29:1
32,31:1
32,32:1
32,33:1
32,34:1
32,41:4
32,57:3
32,58:3
32,59:3
32,68:3
32,69:7
32,70:7
33,1:2
33,2:2
33,3:2
33,4:2
33,5:2
33,6:2
33,7:2
33,9:2
33,13:4
33,14:4
33,15:2
33,18:4
33,19:4
33,20:1
33,21:1
33,22:1
33,23:1
33,25:1
33,26:1
33,27:1
33,28:1
33,29:1
33,31:1
33,32:1
33,33:1
33,41:4
33,57:3
33,58:3
33,59:3
33,68:3
33,69:7
33,70:7
34,1:2
34,2:2
34,3:2
34,4:2
34,5:2
34,6:2
34,7:2
34,9:2
34,13:4
34,14:4
34,15:2
34,18:4
34,19:4
34,20:1
34,21:1
34,22:1
34,23:1
34,25:1
34,26:1
34,27:1
34,28:1
34,29:1
34,31:1
34,32:1
34,33:1
34,34:1
34,41:4
34,57:3
34,58:3
34,59:3
34,68:3
34,69:7
34,70:7
35,1:2
35,2:2
35,3:2
35,4:2
35,5:2
35,6:2
35,7:2
35,9:2
35,13:4
35,14:4
35,15:2
35,18:4
35,19:4
35,20:1
35,21:1
35,22:1
35,23:1
35,25:1
35,26:1
35,27:1
35,28:1
35,29:1
35,31:1
35,32:1
35,33:1
35,34:1
35,35:1
35,41:4
35,57:3
35,58:3
35,59:3
35,68:3
35,69:7
35,70:7
36,13:2
36,14:2
36,18:2
36,19:2
36,36:1
36,41:2
36,45:3
36,46:3
36,47:1
36,48:1
36,49:1
36,52:3
36,53:3
36,54:3
36,55:5
36,56:5
36,57:1
36,58:1
36,59:1
36,60:5
36,61:5
36,63:3
36,64:1
36,65:5
36,66:5
36,67:5
36,68:1
36,69:5
36,70:5
37,13:2
37,14:2
37,18:2
37,19:2
37,36:1
37,37:1
37,41:2
37,45:3
37,46:3
37,47:1
37,48:1
37,49:1
37,52:3
37,53:3
37,54:3
37,55:5
37,56:5
37,57:1
37,58:1
37,59:1
37,60:5
37,61:5
37,63:3
37,64:1
37,65:5
37,66:5
37,67:5
37,68:1
37,69:5
37,70:5
38,13:2
38,14:2
38,18:2
38,19:2
38,36:1
38,37:1
38,38:1
38,41:2
38,45:3
38,46:3
38,47:1
38,48:1
38,49:1
38,52:3
38,53:3
38,54:3
38,55:5
38,56:5
38,57:1
38,58:1
38,59:1
38,60:5
38,61:5
38,63:3
38,64:1
38,65:5
38,66:5
38,67:5
38,68:1
38,69:5
38,70:5
39,13:2
39,14:2
39,18:2
39,19:2
39,36:1
39,37:1
39,38:1
39,39:1
39,41:2
39,45:3
39,46:3
39,47:1
39,48:1
39,49:1
39,52:3
39,53:3
39,54:3
39,55:5
39,56:5
39,57:1
39,58:1
39,59:1
39,60:5
39,61:5
39,63:3
39,64:1
39,65:5
39,66:5
39,67:5
39,68:1
39,69:5
39,70:5
40,13:2
40,14:2
40,18:2
40,19:2
40,36:1
40,37:1
40,38:1
40,39:1
40,40:1
40,41:2
40,45:3
40,46:3
40,47:1
40,48:1
40,49:1
40,52:3
40,53:3
40,54:3
40,55:5
40,56:5
40,57:1
40,58:1
40,59:1
40,60:5
40,61:5
40,63:3
40,64:1
40,65:5
40,66:5
40,67:5
40,68:1
40,69:5
40,70:5
41,13:1
41,14:1
41,18:1
41,19:1
41,41:1
41,45:2
41,46:2
41,52:2
41,53:2
41,54:2
41,55:4
41,56:4
41,60:4
41,61:4
41,63:2
41,65:4
41,66:4
41,67:4
41,69:4
41,70:4
42,13:2
42,14:2
42,18:2
42,19:2
42,36:1
42,37:1
42,38:1
42,39:1
42,40:1
42,41:2
42,42:1
42,45:3
42,46:3
42,47:1
42,48:1
42,49:1
42,52:3
42,53:3
42,54:3
42,55:5
42,56:5
42,57:1
42,58:1
42,59:1
42,60:5
42,61:5
42,63:3
42,64:1
42,65:5
42,66:5
42,67:5
42,68:1
42,69:5
42,70:5
43,13:2
43,14:2
43,18:2
43,19:2
43,36:1
43,37:1
43,38:1
43,39:1
43,40:1
43,41:2
43,42:1
43,43:1
43,45:3
43,46:3
43,47:1
43,48:1
43,49:1
43,52:3
43,53:3
43,54:3
43,55:5
43,56:5
43,57:1
43,58:1
43,59:1
43,60:5
43,61:5
43,63:3
43,64:1
43,65:5
43,66:5
43,67:5
43,68:1
43,69:5
43,70:5
44,1:2
44,2:2
44,3:2
44,4:2
44,5:2
44,6:2
44,7:2
44,9:2
44,13:4
44,14:4
44,15:2
44,18:4
44,19:4
44,20:1
44,21:1
44,22:1
44,23:1
44,25:1
44,26:1
44,27:1
44,28:1
44,29:1
44,31:1
44,32:1
44,33:1
44,34:1
44,35:1
44,36:3
44,37:3
44,38:3
44,39:3
44,40:3
44,41:4
44,42:3
44,43:3
44,44:1
44,48:3
44,49:3
44,51:1
44,52:5
44,53:5
44,54:5
44,55:7
44,56:7
44,57:3
44,58:3
44,59:3
44,60:7
44,61:7
44,62:1
44,63:5
44,64:3
44,65:7
44,66:7
44,67:7
44,68:3
44,69:7
44,70:7
45,45:1
45,52:1
45,53:1
45,54:1
45,55:3
45,56:3
45,60:3
45,61:3
45,63:1
45,65:3
45,66:3
45,67:3
45,69:3
45,70:3
46,45:1
46,46:1
46,52:1
46,53:1
46,54:1
46,55:3
46,56:3
46,60:3
46,61:3
46,63:1
46,65:3
46,66:3
46,67:3
46,69:3
46,70:3
47,13:2
47,14:2
47,18:2
47,19:2
47,36:1
47,37:1
47,38:1
47,39:1
47,40:1
47,41:2
47,42:1
47,43:1
47,45:3
47,46:3
47,47:1
47,48:1
47,49:1
47,52:3
47,53:3
47,54:3
47,55:5
47,56:5
47,57:1
47,58:1
47,59:1
47,60:5
47,61:5
47,63:3
47,64:1
47,65:5
47,66:5
47,67:5
47,68:1
47,69:5
47,70:5
48,13:2
48,14:2
48,18:2
48,19:2
48,36:1
48,37:1
48,38:1
48,39:1
48,40:1
48,41:2
48,42:1
48,43:1
48,45:3
48,46:3
48,47:1
48,48:1
48,52:3
48,53:3
48,54:3
48,55:5
48,56:5
48,57:1
48,58:1
48,59:1
48,60:5
48,61:5
48,63:3
48,64:1
48,65:5
48,66:5
48,67:5
48,68:1
48,69:5
48,70:5
49,13:2
49,14:2
49,18:2
49,19:2
49,36:1
49,37:1
49,38:1
49,39:1
49,40:1
49,41:2
49,42:1
49,43:1
49,45:3
49,46:3
49,47:1
49,48:1
49,49:1
49,52:3
49,53:3
49,54:3
49,55:5
49,56:5
49,57:1
49,58:1
49,59:1
49,60:5
49,61:5
49,63:3
49,64:1
49,65:5
49,66:5
49,67:5
49,68:1
49,69:5
49,70:5
50,50:1
50,55:1
50,56:1
50,60:1
50,61:1
50,65:1
50,66:1
50,67:1
50,69:1
50,70:1
51,1:2
51,2:2
51,3:2
51,4:2
51,5:2
51,6:2
51,7:2
51,9:2
51,13:4
51,14:4
51,15:2
51,18:4
51,19:4
51,20:1
51,21:1
51,22:1
51,23:1
51,25:1
51,26:1
51,27:1
51,28:1
51,29:1
51,31:1
51,32:1
51,33:1
51,34:1
51,35:1
51,36:3
51,37:3
51,38:3
51,39:3
51,40:3
51,41:4
51,42:3
51,43:3
51,44:1
51,45:5
51,46:5
51,47:3
51,48:3
51,49:3
51,50:7
51,51:1
51,53:5
51,56:7
51,57:3
51,58:3
51,59:3
51,60:7
51,61:7
51,62:1
51,63:5
51,64:3
51,65:7
51,66:7
51,67:7
51,68:3
51,69:7
51,70:7
52,45:1
52,46:1
52,50:3
52,52:1
52,53:1
52,56:3
52,60:3
52,61:3
52,63:1
52,65:3
52,66:3
52,67:3
52,69:3
52,70:3
53,45:1
53,46:1
53,50:3
53,52:1
53,53:1
53,56:3
53,60:3
53,61:3
53,63:1
53,65:3
53,66:3
53,67:3
53,69:3
53,70:3
54,45:1
54,46:1
54,50:3
54,52:1
54,53:1
54,54:1
54,56:3
54,60:3
54,61:3
54,63:1
54,65:3
54,66:3
54,67:3
54,69:3
54,70:3
55,50:1
55,55:1
55,56:1
55,60:1
55,61:1
55,65:1
55,66:1
55,67:1
55,69:1
55,70:1
56,50:1
56,55:1
56,56:1
56,60:1
56,61:1
56,65:1
56,66:1
56,67:1
56,69:1
56,70:1
57,13:2
57,14:2
57,18:2
57,19:2
57,36:1
57,37:1
57,38:1
57,39:1
57,40:1
57,41:2
57,42:1
57,43:1
57,45:3
57,46:3
57,47:1
57,48:1
57,49:1
57,50:5
57,52:3
57,53:3
57,54:3
57,55:5
57,56:5
57,57:1
57,61:5
57,63:3
57,64:1
57,65:5
57,66:5
57,67:5
57,68:1
57,69:5
57,70:5
58,13:2
58,14:2
58,18:2
58,19:2
58,36:1
58,37:1
58,38:1
58,39:1
58,40:1
58,41:2
58,42:1
58,43:1
58,45:3
58,46:3
58,47:1
58,48:1
58,49:1
58,50:5
58,52:3
58,53:3
58,54:3
58,55:5
58,56:5
58,57:1
58,58:1
58,61:5
58,63:3
58,64:1
58,65:5
58,66:5
58,67:5
58,68:1
58,69:5
58,70:5
59,13:2
59,14:2
59,18:2
59,19:2
59,36:1
59,37:1
59,38:1
59,39:1
59,40:1
59,41:2
59,42:1
59,43:1
59,45:3
59,46:3
59,47:1
59,48:1
59,49:1
59,50:5
59,52:3
59,53:3
59,54:3
59,55:5
59,56:5
59,57:1
59,58:1
59,59:1
59,61:5
59,63:3
59,64:1
59,65:5
59,66:5
59,67:5
59,68:1
59,69:5
59,70:5
60,50:1
60,55:1
60,56:1
60,60:1
60,61:1
60,65:1
60,66:1
60,67:1
60,69:1
60,70:1
61,50:1
61,55:1
61,56:1
61,60:1
61,61:1
61,66:1
61,67:1
61,69:1
61,70:1
62,1:2
62,2:2
62,3:2
62,4:2
62,5:2
62,6:2
62,7:2
62,9:2
62,13:4
62,14:4
62,15:2
62,18:4
62,19:4
62,20:1
62,21:1
62,22:1
62,23:1
62,25:1
62,26:1
62,27:1
62,28:1
62,29:1
62,31:1
62,32:1
62,33:1
62,34:1
62,35:1
62,36:3
62,37:3
62,38:3
62,39:3
62,40:3
62,41:4
62,42:3
62,43:3
62,44:1
62,45:5
62,46:5
62,47:3
62,48:3
62,49:3
62,50:7
62,51:1
62,52:5
62,53:5
62,54:5
62,55:7
62,56:7
62,57:3
62,58:3
62,59:3
62,60:7
62,61:7
62,62:1
62,68:3
62,69:7
62,70:7
63,45:1
63,46:1
63,50:3
63,52:1
63,53:1
63,54:1
63,55:3
63,56:3
63,60:3
63,61:3
63,63:1
63,69:3
63,70:3
64,13:2
64,14:2
64,18:2
64,19:2
64,36:1
64,37:1
64,38:1
64,39:1
64,40:1
64,41:2
64,42:1
64,43:1
64,45:3
64,46:3
64,47:1
64,48:1
64,49:1
64,50:5
64,52:3
64,53:3
64,54:3
64,55:5
64,56:5
64,57:1
64,58:1
64,59:1
64,60:5
64,61:5
64,63:3
64,64:1
64,68:1
64,69:5
64,70:5
65,50:1
65,55:1
65,56:1
65,60:1
65,61:1
65,65:1
65,66:1
65,67:1
65,69:1
65,70:1
66,50:1
66,55:1
66,56:1
66,60:1
66,61:1
66,65:1
66,66:1
66,67:1
66,69:1
66,70:1
67,50:1
67,55:1
67,56:1
67,60:1
67,61:1
67,65:1
67,66:1
67,67:1
67,69:1
67,70:1
68,13:2
68,14:2
68,18:2
68,19:2
68,36:1
68,37:1
68,38:1
68,39:1
68,40:1
68,41:2
68,42:1
68,43:1
68,45:3
68,46:3
68,47:1
68,48:1
68,49:1
68,50:5
68,52:3
68,53:3
68,54:3
68,55:5
68,56:5
68,57:1
68,58:1
68,59:1
68,60:5
68,61:5
68,63:3
68,64:1
68,65:5
68,66:5
68,67:5
68,68:1
68,69:5
68,70:5
69,50:1
69,55:1
69,56:1
69,60:1
69,61:1
69,65:1
69,66:1
69,67:1
69,69:1
69,70:1
70,50:1
70,55:1
70,56:1
70,60:1
70,61:1
70,65:1
70,66:1
70,67:1
70,69:1
70,70:1

<end>

<optimal SALBP-1 value>
8


<rand seed>
467321153

